<?xml version="1.0" encoding="utf-8" standalone="yes"?>
<SchedulingPeriod ID="sprint01" xmlns:xsi="http://www.w3.org/2001/XMLSchema-instance" xsi:noNamespaceSchemaLocation="competition.xsd">
  <StartDate>2010-01-01</StartDate>
  <EndDate>2010-01-28</EndDate>
  <CourseTypes>
    <Course ID="00000">
      <StartTime>08:00:00</StartTime>
      <EndTime>09:50:00</EndTime>
      <Description>CS111</Description>
    </Course>
    <Course ID="00001">
      <StartTime>10:00:00</StartTime>
      <EndTime>11:50:00</EndTime>
      <Description>CS222</Description>
    </Course>
    <Course ID="00002">
      <StartTime>12:00:00</StartTime>
      <EndTime>13:50:00</EndTime>
      <Description>CS333</Description>
    </Course>
    <Course ID="00003">
      <StartTime>14:00:00</StartTime>
      <EndTime>15:50:00</EndTime>
      <Description>CS444</Description>
    </Course>
  </CourseTypes>
  <Contracts>
    <Contract ID="0">
      <Description>fulltime</Description>
      <SingleAssignmentPerDay weight="1">true</SingleAssignmentPerDay>
      <MaxNumAssignments on="1" weight="1">16</MaxNumAssignments>
      <MinNumAssignments on="1" weight="1">9</MinNumAssignments>
      <MaxConsecutiveWorkingDays on="1" weight="1">8</MaxConsecutiveWorkingDays>
      <MinConsecutiveWorkingDays on="1" weight="1">2</MinConsecutiveWorkingDays>
      <MaxConsecutiveFreeDays on="1" weight="1">7</MaxConsecutiveFreeDays>
      <MinConsecutiveFreeDays on="1" weight="1">1</MinConsecutiveFreeDays>
    </Contract>
    <Contract ID="1">
      <Description>75_time</Description>
      <SingleAssignmentPerDay weight="1">true</SingleAssignmentPerDay>
      <MaxNumAssignments on="1" weight="1">12</MaxNumAssignments>
      <MinNumAssignments on="1" weight="1">6</MinNumAssignments>
      <MaxConsecutiveWorkingDays on="1" weight="1">5</MaxConsecutiveWorkingDays>
      <MinConsecutiveWorkingDays on="1" weight="1">2</MinConsecutiveWorkingDays>
      <MaxConsecutiveFreeDays on="1" weight="1">5</MaxConsecutiveFreeDays>
      <MinConsecutiveFreeDays on="1" weight="1">1</MinConsecutiveFreeDays>
    </Contract>
    <Contract ID="2">
      <Description>50_percent</Description>
      <SingleAssignmentPerDay weight="1">true</SingleAssignmentPerDay>
      <MaxNumAssignments on="1" weight="1">9</MaxNumAssignments>
      <MinNumAssignments on="1" weight="1">4</MinNumAssignments>
      <MaxConsecutiveWorkingDays on="1" weight="1">4</MaxConsecutiveWorkingDays>
      <MinConsecutiveWorkingDays on="1" weight="1">2</MinConsecutiveWorkingDays>
      <MaxConsecutiveFreeDays on="1" weight="1">7</MaxConsecutiveFreeDays>
      <MinConsecutiveFreeDays on="1" weight="1">1</MinConsecutiveFreeDays>
    </Contract>
    <Contract ID="3">
      <Description>night</Description>
      <SingleAssignmentPerDay weight="1">true</SingleAssignmentPerDay>
      <MaxNumAssignments on="1" weight="1">8</MaxNumAssignments>
      <MinNumAssignments on="1" weight="1">8</MinNumAssignments>
      <MaxConsecutiveWorkingDays on="1" weight="1">2</MaxConsecutiveWorkingDays>
      <MinConsecutiveWorkingDays on="1" weight="1">1</MinConsecutiveWorkingDays>
      <MaxConsecutiveFreeDays on="1" weight="1">20</MaxConsecutiveFreeDays>
      <MinConsecutiveFreeDays on="1" weight="1">3</MinConsecutiveFreeDays>
    </Contract>
  </Contracts>
  <Tas>
    <Ta ID="0">
      <ContractID>0</ContractID>
      <Name>Furlow, Scott</Name>
    </Ta>
    <Ta ID="1">
      <ContractID>0</ContractID>
      <Name>Peterson, Luke</Name>
    </Ta>
    <Ta ID="2">
      <ContractID>0</ContractID>
      <Name>Hooper, Alex</Name>
    </Ta>
    <Ta ID="3">
      <ContractID>0</ContractID>
      <Name>Jones, Myron</Name>
    </Ta>
    <Ta ID="4">
      <ContractID>1</ContractID>
      <Name>Bouvier, Dennis</Name>
    </Ta>
    <Ta ID="5">
      <ContractID>1</ContractID>
      <Name>White, William</Name>
    </Ta>
    <Ta ID="6">
      <ContractID>2</ContractID>
      <Name>Crk, Igor</Name>
    </Ta>
    <Ta ID="7">
      <ContractID>2</ContractID>
      <Name>Yu, William</Name>
    </Ta>
    <Ta ID="8">
      <ContractID>3</ContractID>
      <Name>Mayer, Gary</Name>
    </Ta>
    <Ta ID="9">
      <ContractID>3</ContractID>
      <Name>Gamage, Thosita</Name>
    </Ta>
  </Tas>
  <CoverRequirements>
    <DayOfWeekCover>
      <Day>Monday</Day>
      <Cover>
        <Course>00000</Course>
        <Preferred>2</Preferred>
      </Cover>
      <Cover>
        <Course>00001</Course>
        <Preferred>2</Preferred>
      </Cover>
      <Cover>
        <Course>00002</Course>
        <Preferred>1</Preferred>
      </Cover>
      <Cover>
        <Course>00003</Course>
        <Preferred>1</Preferred>
      </Cover>
    </DayOfWeekCover>
    <DayOfWeekCover>
      <Day>Tuesday</Day>
      <Cover>
        <Course>00000</Course>
        <Preferred>2</Preferred>
      </Cover>
      <Cover>
        <Course>00001</Course>
        <Preferred>2</Preferred>
      </Cover>
      <Cover>
        <Course>00002</Course>
        <Preferred>1</Preferred>
      </Cover>
      <Cover>
        <Course>00003</Course>
        <Preferred>1</Preferred>
      </Cover>
    </DayOfWeekCover>
    <DayOfWeekCover>
      <Day>Wednesday</Day>
      <Cover>
        <Course>00000</Course>
        <Preferred>2</Preferred>
      </Cover>
      <Cover>
        <Course>00001</Course>
        <Preferred>2</Preferred>
      </Cover>
      <Cover>
        <Course>00002</Course>
        <Preferred>1</Preferred>
      </Cover>
      <Cover>
        <Course>00003</Course>
        <Preferred>1</Preferred>
      </Cover>
    </DayOfWeekCover>
    <DayOfWeekCover>
      <Day>Thursday</Day>
      <Cover>
        <Course>00000</Course>
        <Preferred>2</Preferred>
      </Cover>
      <Cover>
        <Course>00001</Course>
        <Preferred>2</Preferred>
      </Cover>
      <Cover>
        <Course>00002</Course>
        <Preferred>1</Preferred>
      </Cover>
      <Cover>
        <Course>00003</Course>
        <Preferred>1</Preferred>
      </Cover>
    </DayOfWeekCover>
    <DayOfWeekCover>
      <Day>Friday</Day>
      <Cover>
        <Course>00000</Course>
        <Preferred>2</Preferred>
      </Cover>
      <Cover>
        <Course>00001</Course>
        <Preferred>2</Preferred>
      </Cover>
      <Cover>
        <Course>00002</Course>
        <Preferred>1</Preferred>
      </Cover>
      <Cover>
        <Course>00003</Course>
        <Preferred>1</Preferred>
      </Cover>
    </DayOfWeekCover>
    <DayOfWeekCover>
      <Day>Saturday</Day>
      <Cover>
        <Course>00000</Course>
        <Preferred>2</Preferred>
      </Cover>
      <Cover>
        <Course>00001</Course>
        <Preferred>2</Preferred>
      </Cover>
      <Cover>
        <Course>00002</Course>
        <Preferred>1</Preferred>
      </Cover>
      <Cover>
        <Course>00003</Course>
        <Preferred>1</Preferred>
      </Cover>
    </DayOfWeekCover>
    <DayOfWeekCover>
      <Day>Sunday</Day>
      <Cover>
        <Course>00000</Course>
        <Preferred>2</Preferred>
      </Cover>
      <Cover>
        <Course>00001</Course>
        <Preferred>2</Preferred>
      </Cover>
      <Cover>
        <Course>00002</Course>
        <Preferred>1</Preferred>
      </Cover>
      <Cover>
        <Course>00003</Course>
        <Preferred>1</Preferred>
      </Cover>
    </DayOfWeekCover>
  </CoverRequirements>
  <DayOffRequests>
    <DayOff weight="1">
      <TaID>0</TaID>
      <Date>2010-01-02</Date>
    </DayOff>
    <DayOff weight="1">
      <TaID>0</TaID>
      <Date>2010-01-08</Date>
    </DayOff>
    <DayOff weight="1">
      <TaID>0</TaID>
      <Date>2010-01-07</Date>
    </DayOff>
    <DayOff weight="1">
      <TaID>0</TaID>
      <Date>2010-01-05</Date>
    </DayOff>
    <DayOff weight="1">
      <TaID>0</TaID>
      <Date>2010-01-15</Date>
    </DayOff>
    <DayOff weight="1">
      <TaID>0</TaID>
      <Date>2010-01-04</Date>
    </DayOff>
    <DayOff weight="1">
      <TaID>0</TaID>
      <Date>2010-01-25</Date>
    </DayOff>
    <DayOff weight="1">
      <TaID>0</TaID>
      <Date>2010-01-16</Date>
    </DayOff>
    <DayOff weight="1">
      <TaID>0</TaID>
      <Date>2010-01-01</Date>
    </DayOff>
    <DayOff weight="1">
      <TaID>0</TaID>
      <Date>2010-01-27</Date>
    </DayOff>
    <DayOff weight="1">
      <TaID>1</TaID>
      <Date>2010-01-20</Date>
    </DayOff>
    <DayOff weight="1">
      <TaID>1</TaID>
      <Date>2010-01-15</Date>
    </DayOff>
    <DayOff weight="1">
      <TaID>1</TaID>
      <Date>2010-01-18</Date>
    </DayOff>
    <DayOff weight="1">
      <TaID>1</TaID>
      <Date>2010-01-11</Date>
    </DayOff>
    <DayOff weight="1">
      <TaID>1</TaID>
      <Date>2010-01-17</Date>
    </DayOff>
    <DayOff weight="1">
      <TaID>1</TaID>
      <Date>2010-01-04</Date>
    </DayOff>
    <DayOff weight="1">
      <TaID>1</TaID>
      <Date>2010-01-08</Date>
    </DayOff>
    <DayOff weight="1">
      <TaID>1</TaID>
      <Date>2010-01-07</Date>
    </DayOff>
    <DayOff weight="1">
      <TaID>1</TaID>
      <Date>2010-01-23</Date>
    </DayOff>
    <DayOff weight="1">
      <TaID>1</TaID>
      <Date>2010-01-06</Date>
    </DayOff>
    <DayOff weight="1">
      <TaID>2</TaID>
      <Date>2010-01-08</Date>
    </DayOff>
    <DayOff weight="1">
      <TaID>2</TaID>
      <Date>2010-01-01</Date>
    </DayOff>
    <DayOff weight="1">
      <TaID>2</TaID>
      <Date>2010-01-21</Date>
    </DayOff>
    <DayOff weight="1">
      <TaID>2</TaID>
      <Date>2010-01-16</Date>
    </DayOff>
    <DayOff weight="1">
      <TaID>2</TaID>
      <Date>2010-01-04</Date>
    </DayOff>
    <DayOff weight="1">
      <TaID>2</TaID>
      <Date>2010-01-22</Date>
    </DayOff>
    <DayOff weight="1">
      <TaID>2</TaID>
      <Date>2010-01-14</Date>
    </DayOff>
    <DayOff weight="1">
      <TaID>2</TaID>
      <Date>2010-01-09</Date>
    </DayOff>
    <DayOff weight="1">
      <TaID>2</TaID>
      <Date>2010-01-17</Date>
    </DayOff>
    <DayOff weight="1">
      <TaID>2</TaID>
      <Date>2010-01-20</Date>
    </DayOff>
    <DayOff weight="1">
      <TaID>3</TaID>
      <Date>2010-01-14</Date>
    </DayOff>
    <DayOff weight="1">
      <TaID>3</TaID>
      <Date>2010-01-21</Date>
    </DayOff>
    <DayOff weight="1">
      <TaID>3</TaID>
      <Date>2010-01-17</Date>
    </DayOff>
    <DayOff weight="1">
      <TaID>3</TaID>
      <Date>2010-01-20</Date>
    </DayOff>
    <DayOff weight="1">
      <TaID>3</TaID>
      <Date>2010-01-16</Date>
    </DayOff>
    <DayOff weight="1">
      <TaID>3</TaID>
      <Date>2010-01-25</Date>
    </DayOff>
    <DayOff weight="1">
      <TaID>3</TaID>
      <Date>2010-01-10</Date>
    </DayOff>
    <DayOff weight="1">
      <TaID>3</TaID>
      <Date>2010-01-13</Date>
    </DayOff>
    <DayOff weight="1">
      <TaID>3</TaID>
      <Date>2010-01-09</Date>
    </DayOff>
    <DayOff weight="1">
      <TaID>3</TaID>
      <Date>2010-01-18</Date>
    </DayOff>
    <DayOff weight="1">
      <TaID>4</TaID>
      <Date>2010-01-18</Date>
    </DayOff>
    <DayOff weight="1">
      <TaID>4</TaID>
      <Date>2010-01-07</Date>
    </DayOff>
    <DayOff weight="1">
      <TaID>4</TaID>
      <Date>2010-01-02</Date>
    </DayOff>
    <DayOff weight="1">
      <TaID>4</TaID>
      <Date>2010-01-28</Date>
    </DayOff>
    <DayOff weight="1">
      <TaID>4</TaID>
      <Date>2010-01-17</Date>
    </DayOff>
    <DayOff weight="1">
      <TaID>4</TaID>
      <Date>2010-01-21</Date>
    </DayOff>
    <DayOff weight="1">
      <TaID>4</TaID>
      <Date>2010-01-24</Date>
    </DayOff>
    <DayOff weight="1">
      <TaID>4</TaID>
      <Date>2010-01-06</Date>
    </DayOff>
    <DayOff weight="1">
      <TaID>4</TaID>
      <Date>2010-01-04</Date>
    </DayOff>
    <DayOff weight="1">
      <TaID>4</TaID>
      <Date>2010-01-10</Date>
    </DayOff>
    <DayOff weight="1">
      <TaID>5</TaID>
      <Date>2010-01-04</Date>
    </DayOff>
    <DayOff weight="1">
      <TaID>5</TaID>
      <Date>2010-01-22</Date>
    </DayOff>
    <DayOff weight="1">
      <TaID>5</TaID>
      <Date>2010-01-14</Date>
    </DayOff>
    <DayOff weight="1">
      <TaID>5</TaID>
      <Date>2010-01-07</Date>
    </DayOff>
    <DayOff weight="1">
      <TaID>5</TaID>
      <Date>2010-01-27</Date>
    </DayOff>
    <DayOff weight="1">
      <TaID>5</TaID>
      <Date>2010-01-25</Date>
    </DayOff>
    <DayOff weight="1">
      <TaID>5</TaID>
      <Date>2010-01-17</Date>
    </DayOff>
    <DayOff weight="1">
      <TaID>5</TaID>
      <Date>2010-01-20</Date>
    </DayOff>
    <DayOff weight="1">
      <TaID>5</TaID>
      <Date>2010-01-09</Date>
    </DayOff>
    <DayOff weight="1">
      <TaID>5</TaID>
      <Date>2010-01-23</Date>
    </DayOff>
    <DayOff weight="1">
      <TaID>6</TaID>
      <Date>2010-01-17</Date>
    </DayOff>
    <DayOff weight="1">
      <TaID>6</TaID>
      <Date>2010-01-10</Date>
    </DayOff>
    <DayOff weight="1">
      <TaID>6</TaID>
      <Date>2010-01-27</Date>
    </DayOff>
    <DayOff weight="1">
      <TaID>6</TaID>
      <Date>2010-01-07</Date>
    </DayOff>
    <DayOff weight="1">
      <TaID>6</TaID>
      <Date>2010-01-15</Date>
    </DayOff>
    <DayOff weight="1">
      <TaID>6</TaID>
      <Date>2010-01-19</Date>
    </DayOff>
    <DayOff weight="1">
      <TaID>6</TaID>
      <Date>2010-01-20</Date>
    </DayOff>
    <DayOff weight="1">
      <TaID>6</TaID>
      <Date>2010-01-18</Date>
    </DayOff>
    <DayOff weight="1">
      <TaID>6</TaID>
      <Date>2010-01-03</Date>
    </DayOff>
    <DayOff weight="1">
      <TaID>6</TaID>
      <Date>2010-01-28</Date>
    </DayOff>
    <DayOff weight="1">
      <TaID>7</TaID>
      <Date>2010-01-27</Date>
    </DayOff>
    <DayOff weight="1">
      <TaID>7</TaID>
      <Date>2010-01-02</Date>
    </DayOff>
    <DayOff weight="1">
      <TaID>7</TaID>
      <Date>2010-01-07</Date>
    </DayOff>
    <DayOff weight="1">
      <TaID>7</TaID>
      <Date>2010-01-25</Date>
    </DayOff>
    <DayOff weight="1">
      <TaID>7</TaID>
      <Date>2010-01-19</Date>
    </DayOff>
    <DayOff weight="1">
      <TaID>7</TaID>
      <Date>2010-01-18</Date>
    </DayOff>
    <DayOff weight="1">
      <TaID>7</TaID>
      <Date>2010-01-14</Date>
    </DayOff>
    <DayOff weight="1">
      <TaID>7</TaID>
      <Date>2010-01-12</Date>
    </DayOff>
    <DayOff weight="1">
      <TaID>7</TaID>
      <Date>2010-01-16</Date>
    </DayOff>
    <DayOff weight="1">
      <TaID>7</TaID>
      <Date>2010-01-22</Date>
    </DayOff>
    <DayOff weight="1">
      <TaID>8</TaID>
      <Date>2010-01-07</Date>
    </DayOff>
    <DayOff weight="1">
      <TaID>8</TaID>
      <Date>2010-01-05</Date>
    </DayOff>
    <DayOff weight="1">
      <TaID>8</TaID>
      <Date>2010-01-15</Date>
    </DayOff>
    <DayOff weight="1">
      <TaID>8</TaID>
      <Date>2010-01-10</Date>
    </DayOff>
    <DayOff weight="1">
      <TaID>8</TaID>
      <Date>2010-01-08</Date>
    </DayOff>
    <DayOff weight="1">
      <TaID>8</TaID>
      <Date>2010-01-04</Date>
    </DayOff>
    <DayOff weight="1">
      <TaID>8</TaID>
      <Date>2010-01-26</Date>
    </DayOff>
    <DayOff weight="1">
      <TaID>8</TaID>
      <Date>2010-01-09</Date>
    </DayOff>
    <DayOff weight="1">
      <TaID>8</TaID>
      <Date>2010-01-14</Date>
    </DayOff>
    <DayOff weight="1">
      <TaID>8</TaID>
      <Date>2010-01-22</Date>
    </DayOff>
    <DayOff weight="1">
      <TaID>9</TaID>
      <Date>2010-01-06</Date>
    </DayOff>
    <DayOff weight="1">
      <TaID>9</TaID>
      <Date>2010-01-22</Date>
    </DayOff>
    <DayOff weight="1">
      <TaID>9</TaID>
      <Date>2010-01-19</Date>
    </DayOff>
    <DayOff weight="1">
      <TaID>9</TaID>
      <Date>2010-01-21</Date>
    </DayOff>
    <DayOff weight="1">
      <TaID>9</TaID>
      <Date>2010-01-02</Date>
    </DayOff>
    <DayOff weight="1">
      <TaID>9</TaID>
      <Date>2010-01-27</Date>
    </DayOff>
    <DayOff weight="1">
      <TaID>9</TaID>
      <Date>2010-01-24</Date>
    </DayOff>
    <DayOff weight="1">
      <TaID>9</TaID>
      <Date>2010-01-17</Date>
    </DayOff>
    <DayOff weight="1">
      <TaID>9</TaID>
      <Date>2010-01-16</Date>
    </DayOff>
    <DayOff weight="1">
      <TaID>9</TaID>
      <Date>2010-01-04</Date>
    </DayOff>
  </DayOffRequests>
  <CourseOffRequests>
    <CourseOff weight="1">
      <CourseTypeID>00000</CourseTypeID>
      <TaID>0</TaID>
      <Date>2010-01-03</Date>
    </CourseOff>
    <CourseOff weight="1">
      <CourseTypeID>00001</CourseTypeID>
      <TaID>4</TaID>
      <Date>2010-01-13</Date>
    </CourseOff>
    <CourseOff weight="1">
      <CourseTypeID>00002</CourseTypeID>
      <TaID>5</TaID>
      <Date>2010-01-12</Date>
    </CourseOff>
    <CourseOff weight="1">
      <CourseTypeID>00003</CourseTypeID>
      <TaID>6</TaID>
      <Date>2010-01-04</Date>
    </CourseOff>
    <CourseOff weight="1">
      <CourseTypeID>00001</CourseTypeID>
      <TaID>7</TaID>
      <Date>2010-01-02</Date>
    </CourseOff>
    <CourseOff weight="1">
      <CourseTypeID>00000</CourseTypeID>
      <TaID>8</TaID>
      <Date>2010-01-18</Date>
    </CourseOff>
    <CourseOff weight="1">
      <CourseTypeID>00003</CourseTypeID>
      <TaID>9</TaID>
      <Date>2010-01-09</Date>
    </CourseOff>
    <CourseOff weight="1">
      <CourseTypeID>00002</CourseTypeID>
      <TaID>2</TaID>
      <Date>2010-01-27</Date>
    </CourseOff>
    <CourseOff weight="1">
      <CourseTypeID>00003</CourseTypeID>
      <TaID>3</TaID>
      <Date>2010-01-08</Date>
    </CourseOff>
  </CourseOffRequests>
</SchedulingPeriod>
